\ This file has been generated by DOcplex
\ ENCODING=ISO-8859-1
\Problem name: random_problem.lp

Minimize
 obj: 8 x0 + 29 x1 + 17 x2 + 14 x3 + 21 x4 + 51 x5 + 50 x6 + 62 x7 + 28 x8
      + 34 x9 + 75 x10 + 19 x11 + 72 x12 + 25 x13 + 72 x14 + 94 x15 + 44 x16
Subject To
 c0: x1 + x7 + x13 + x14 = 1
 c1: x5 + x6 + x7 + x9 + x13 + x15 = 1
 c2: x0 + x3 + x4 + x5 + x10 + x16 = 1
 c3: x2 + x12 + x14 = 1
 c4: x1 + x8 + x11 + x15 = 1

Bounds
 0 <= x0 <= 1
 0 <= x1 <= 1
 0 <= x2 <= 1
 0 <= x3 <= 1
 0 <= x4 <= 1
 0 <= x5 <= 1
 0 <= x6 <= 1
 0 <= x7 <= 1
 0 <= x8 <= 1
 0 <= x9 <= 1
 0 <= x10 <= 1
 0 <= x11 <= 1
 0 <= x12 <= 1
 0 <= x13 <= 1
 0 <= x14 <= 1
 0 <= x15 <= 1
 0 <= x16 <= 1

Binaries
 x0 x1 x2 x3 x4 x5 x6 x7 x8 x9 x10 x11 x12 x13 x14 x15 x16
End
